%mem=600MW
%nprocshared=4
# UHF/6-31G(d) Nosymm Guess=mix

ground state 

0 1
H
H 1 3.47

